177 198 140 187 223
160 144 170 219 183
138 178 111 217 231
101 134 179 146 241
168 176 144 213 156
122 186 211 132 198
137 102 135 167 214
173 121 108 176 206
107 159 137 181 258
168 170 206 213 234
